109
187
182
157
149
187
191
171
172
152
141
141
173
151
190
110
134
144
132
119
117
136
156
109
155
163
180
158
145
104
117
131
186
194
133
187
172
137
169
130
138
113
151
106
165
146
196
143
196
128
181
111
123
107
141
143
161
196
117
126
113
117
139
114
162
137
177
105
159
121
166
113
172
174
185
181
170
109
143
125
108
120
108
121
185
152
130
145
140
102
102
191
188
178
124
163
152
106
152
150
146
161
161
109
142
158
200
195
124
112
126
174
138
193
105
118
134
180
140
109
102
150
174
161
192
169
182
119
122
151
100
193
150
193
179
157
133
114
128
120
111
122
162
122
109
141
190
124
187
193
194
147
146
115
188
198
103
189
171
189
164
104
114
179
144
181
158
178
125
167
114
171
127
118
147
187
118
195
184
103
140
195
135
164
118
191
164
192
147
183
114
133
118
138
175
174
154
166
142
102
